n=10;
hearts=82;
clubs=28;
spades=36;
diamonds=13;
blocked=26;
m=array2d(1..n, 1..n,[
	5,4,1,3,3,_,4,_,4,5,
	2,1,4,_,_,_,_,_,2,5,
	5,1,_,_,_,1,5,2,5,2,
	_,3,_,3,_,5,_,_,5,5,
	_,_,1,5,5,_,_,_,5,_,
	_,_,_,_,_,1,_,5,2,_,
	5,_,5,2,1,2,5,5,5,5,
	2,4,_,_,_,_,4,5,_,5,
	_,1,_,_,1,_,_,_,_,5,
	_,5,5,_,_,2,5,_,5,_
]);
